(declare-fun main@%_728_0 () (_ BitVec 8))
(declare-fun main@%_730_0 () (_ BitVec 8))
(declare-fun main@%_731_0 () (_ BitVec 8))
(declare-fun main@%_726_0 () (_ BitVec 32))
(declare-fun main@%_685_0 () (_ BitVec 32))
(declare-fun main@%_686_0 () (_ BitVec 8))
(declare-fun main@%_688_0 () (_ BitVec 8))
(declare-fun main@%_690_0 () (_ BitVec 8))
(declare-fun main@%_727_0 () (_ BitVec 32))
(declare-fun main@%_696_0 () (_ BitVec 8))
(declare-fun main@%_643_0 () (_ BitVec 32))
(declare-fun main@%_644_0 () (_ BitVec 8))
(declare-fun main@%_646_0 () (_ BitVec 8))
(declare-fun main@%_648_0 () (_ BitVec 8))
(declare-fun main@%_601_0 () (_ BitVec 32))
(declare-fun main@%_602_0 () (_ BitVec 8))
(declare-fun main@%_604_0 () (_ BitVec 8))
(declare-fun main@%_606_0 () (_ BitVec 8))
(declare-fun main@%_559_0 () (_ BitVec 32))
(declare-fun main@%_560_0 () (_ BitVec 8))
(declare-fun main@%_562_0 () (_ BitVec 8))
(declare-fun main@%_564_0 () (_ BitVec 8))
(declare-fun main@%_558_0 () (_ BitVec 32))
(declare-fun main@%_517_0 () (_ BitVec 32))
(declare-fun main@%_518_0 () (_ BitVec 8))
(declare-fun main@%_520_0 () (_ BitVec 8))
(declare-fun main@%_522_0 () (_ BitVec 8))
(declare-fun main@%_475_0 () (_ BitVec 32))
(declare-fun main@%_476_0 () (_ BitVec 8))
(declare-fun main@%_478_0 () (_ BitVec 8))
(declare-fun main@%_480_0 () (_ BitVec 8))
(declare-fun main@%_486_0 () (_ BitVec 8))
(declare-fun main@%_433_0 () (_ BitVec 32))
(declare-fun main@%_434_0 () (_ BitVec 8))
(declare-fun main@%_436_0 () (_ BitVec 8))
(declare-fun main@%_438_0 () (_ BitVec 8))
(declare-fun main@%_391_0 () (_ BitVec 32))
(declare-fun main@%_392_0 () (_ BitVec 8))
(declare-fun main@%_394_0 () (_ BitVec 8))
(declare-fun main@%_396_0 () (_ BitVec 8))
(declare-fun main@%_349_0 () (_ BitVec 32))
(declare-fun main@%_350_0 () (_ BitVec 8))
(declare-fun main@%_684_0 () (_ BitVec 32))
(declare-fun main@%_144_0 () (_ BitVec 8))
(declare-fun main@%_138_0 () (_ BitVec 32))
(declare-fun main@%_150_0 () (_ BitVec 8))
(declare-fun main@%_96_0 () (_ BitVec 32))
(declare-fun main@%_142_0 () (_ BitVec 8))
(declare-fun main@%_108_0 () (_ BitVec 8))
(declare-fun main@%_55_0 () (_ BitVec 32))
(declare-fun main@%_516_0 () (_ BitVec 32))
(declare-fun main@%_56_0 () (_ BitVec 8))
(declare-fun main@%_612_0 () (_ BitVec 8))
(declare-fun main@%_102_0 () (_ BitVec 8))
(declare-fun main@%_54_0 () (_ BitVec 32))
(declare-fun main@%_66_0 () (_ BitVec 8))
(declare-fun main@%_352_0 () (_ BitVec 8))
(declare-fun main@%_600_0 () (_ BitVec 32))
(declare-fun main@%_100_0 () (_ BitVec 8))
(declare-fun main@%_2_0 () (_ BitVec 8))
(declare-fun main@%_234_0 () (_ BitVec 8))
(declare-fun main@%_402_0 () (_ BitVec 8))
(declare-fun main@%_5_0 () (_ BitVec 8))
(declare-fun main@%_276_0 () (_ BitVec 8))
(declare-fun main@%_390_0 () (_ BitVec 32))
(declare-fun main@%_4_0 () (_ BitVec 8))
(declare-fun main@%_264_0 () (_ BitVec 32))
(declare-fun main@%_60_0 () (_ BitVec 8))
(declare-fun main@%_10_0 () (_ BitVec 8))
(declare-fun main@%_308_0 () (_ BitVec 8))
(declare-fun main@%_528_0 () (_ BitVec 8))
(declare-fun main@%_58_0 () (_ BitVec 8))
(declare-fun main@%_0_0 () (_ BitVec 32))
(declare-fun main@%_307_0 () (_ BitVec 32))
(declare-fun main@%_474_0 () (_ BitVec 32))
(declare-fun main@%_21_0 () (_ BitVec 8))
(declare-fun main@%_348_0 () (_ BitVec 32))
(declare-fun main@%_98_0 () (_ BitVec 8))
(declare-fun main@%_27_0 () (_ BitVec 8))
(declare-fun main@%_570_0 () (_ BitVec 8))
(declare-fun main@%_97_0 () (_ BitVec 32))
(declare-fun main@%_733_0 () (_ BitVec 8))
(declare-fun main@%_15_0 () (_ BitVec 32))
(declare-fun main@%_312_0 () (_ BitVec 8))
(declare-fun main@%_19_0 () (_ BitVec 8))
(declare-fun main@%_444_0 () (_ BitVec 8))
(declare-fun main@%_17_0 () (_ BitVec 8))
(declare-fun main@%_318_0 () (_ BitVec 8))
(declare-fun main@%_432_0 () (_ BitVec 32))
(declare-fun main@%_16_0 () (_ BitVec 32))
(declare-fun main@%_306_0 () (_ BitVec 32))
(declare-fun main@%_654_0 () (_ BitVec 8))
(declare-fun main@%_140_0 () (_ BitVec 8))
(declare-fun main@%_642_0 () (_ BitVec 32))
(declare-fun main@%_139_0 () (_ BitVec 32))
(declare-fun sea.sp0_0 () (_ BitVec 64))
(declare-fun main@%_192_0 () (_ BitVec 8))
(declare-fun main@%_180_0 () (_ BitVec 32))
(declare-fun main@%_186_0 () (_ BitVec 8))
(declare-fun main@%_184_0 () (_ BitVec 8))
(declare-fun main@%_182_0 () (_ BitVec 8))
(declare-fun main@%_181_0 () (_ BitVec 32))
(declare-fun main@%_222_0 () (_ BitVec 32))
(declare-fun main@%_228_0 () (_ BitVec 8))
(declare-fun main@%_226_0 () (_ BitVec 8))
(declare-fun main@%_224_0 () (_ BitVec 8))
(declare-fun main@%_223_0 () (_ BitVec 32))
(declare-fun main@%_270_0 () (_ BitVec 8))
(declare-fun main@%_268_0 () (_ BitVec 8))
(declare-fun main@%_266_0 () (_ BitVec 8))
(declare-fun main@%_265_0 () (_ BitVec 32))
(declare-fun main@%_310_0 () (_ BitVec 8))
(declare-fun main@%_1_0 () (_ BitVec 32))
(declare-fun main@%_360_0 () (_ BitVec 8))
(declare-fun main@%_354_0 () (_ BitVec 8))

(assert (let ((a!1 (= ((_ extract 0 0) (bvor (bvand main@%_5_0 main@%_4_0) main@%_2_0))
              #b1))
      (a!3 (= ((_ extract 0 0) (bvor main@%_10_0 (bvand main@%_5_0 main@%_4_0)))
              #b1))
      (a!5 (= ((_ extract 0 0)
                (bvor main@%_27_0 (bvand main@%_21_0 main@%_19_0)))
              #b1))
      (a!7 (ite (= ((_ extract 0 0) main@%_5_0) #b1)
                (= ((_ extract 0 0) main@%_4_0) #b1)
                false))
      (a!8 ((_ extract 59 0)
             (bvlshr (bvmul ((_ zero_extend 32) main@%_1_0)
                            ((_ zero_extend 32) main@%_0_0))
                     #x0000000000000002)))
      (a!11 (= ((_ extract 0 0)
                 (bvor (bvand main@%_21_0 main@%_19_0) main@%_17_0))
               #b1))
      (a!13 (= ((_ extract 0 0)
                 (bvor main@%_66_0 (bvand main@%_60_0 main@%_58_0)))
               #b1))
      (a!16 (ite (= ((_ extract 0 0) main@%_21_0) #b1)
                 (= ((_ extract 0 0) main@%_19_0) #b1)
                 false))
      (a!17 ((_ extract 59 0)
              (bvlshr (bvmul ((_ zero_extend 32) main@%_16_0)
                             ((_ zero_extend 32) main@%_15_0))
                      #x0000000000000002)))
      (a!20 (= ((_ extract 0 0)
                 (bvor (bvand main@%_60_0 main@%_58_0) main@%_56_0))
               #b1))
      (a!24 (= ((_ extract 0 0)
                 (bvor main@%_108_0 (bvand main@%_102_0 main@%_100_0)))
               #b1))
      (a!26 (ite (= ((_ extract 0 0) main@%_60_0) #b1)
                 (= ((_ extract 0 0) main@%_58_0) #b1)
                 false))
      (a!27 ((_ extract 59 0)
              (bvlshr (bvmul ((_ zero_extend 32) main@%_55_0)
                             ((_ zero_extend 32) main@%_54_0))
                      #x0000000000000002)))
      (a!29 (= ((_ extract 0 0)
                 (bvor (bvand main@%_102_0 main@%_100_0) main@%_98_0))
               #b1))
      (a!32 (= ((_ extract 0 0)
                 (bvor main@%_150_0 (bvand main@%_144_0 main@%_142_0)))
               #b1))
      (a!34 (ite (= ((_ extract 0 0) main@%_102_0) #b1)
                 (= ((_ extract 0 0) main@%_100_0) #b1)
                 false))
      (a!35 ((_ extract 59 0)
              (bvlshr (bvmul ((_ zero_extend 32) main@%_97_0)
                             ((_ zero_extend 32) main@%_96_0))
                      #x0000000000000002)))
      (a!38 (= ((_ extract 0 0)
                 (bvor (bvand main@%_144_0 main@%_142_0) main@%_140_0))
               #b1))
      (a!40 (= ((_ extract 0 0)
                 (bvor main@%_192_0 (bvand main@%_186_0 main@%_184_0)))
               #b1))
      (a!43 (ite (= ((_ extract 0 0) main@%_144_0) #b1)
                 (= ((_ extract 0 0) main@%_142_0) #b1)
                 false))
      (a!44 ((_ extract 59 0)
              (bvlshr (bvmul ((_ zero_extend 32) main@%_139_0)
                             ((_ zero_extend 32) main@%_138_0))
                      #x0000000000000002)))
      (a!47 (= ((_ extract 0 0)
                 (bvor (bvand main@%_186_0 main@%_184_0) main@%_182_0))
               #b1))
      (a!51 (= ((_ extract 0 0)
                 (bvor main@%_234_0 (bvand main@%_228_0 main@%_226_0)))
               #b1))
      (a!53 (ite (= ((_ extract 0 0) main@%_186_0) #b1)
                 (= ((_ extract 0 0) main@%_184_0) #b1)
                 false))
      (a!54 ((_ extract 59 0)
              (bvlshr (bvmul ((_ zero_extend 32) main@%_181_0)
                             ((_ zero_extend 32) main@%_180_0))
                      #x0000000000000002)))
      (a!56 (= ((_ extract 0 0)
                 (bvor (bvand main@%_228_0 main@%_226_0) main@%_224_0))
               #b1))
      (a!59 (= ((_ extract 0 0)
                 (bvor main@%_276_0 (bvand main@%_270_0 main@%_268_0)))
               #b1))
      (a!61 (ite (= ((_ extract 0 0) main@%_228_0) #b1)
                 (= ((_ extract 0 0) main@%_226_0) #b1)
                 false))
      (a!62 ((_ extract 59 0)
              (bvlshr (bvmul ((_ zero_extend 32) main@%_223_0)
                             ((_ zero_extend 32) main@%_222_0))
                      #x0000000000000002)))
      (a!65 (= ((_ extract 0 0)
                 (bvor (bvand main@%_270_0 main@%_268_0) main@%_266_0))
               #b1))
      (a!67 (= ((_ extract 0 0)
                 (bvor main@%_318_0 (bvand main@%_312_0 main@%_310_0)))
               #b1))
      (a!70 (ite (= ((_ extract 0 0) main@%_270_0) #b1)
                 (= ((_ extract 0 0) main@%_268_0) #b1)
                 false))
      (a!71 ((_ extract 59 0)
              (bvlshr (bvmul ((_ zero_extend 32) main@%_265_0)
                             ((_ zero_extend 32) main@%_264_0))
                      #x0000000000000002)))
      (a!74 (= ((_ extract 0 0)
                 (bvor (bvand main@%_312_0 main@%_310_0) main@%_308_0))
               #b1))
      (a!78 (= ((_ extract 0 0)
                 (bvor main@%_360_0 (bvand main@%_354_0 main@%_352_0)))
               #b1))
      (a!80 (ite (= ((_ extract 0 0) main@%_312_0) #b1)
                 (= ((_ extract 0 0) main@%_310_0) #b1)
                 false))
      (a!81 ((_ extract 59 0)
              (bvlshr (bvmul ((_ zero_extend 32) main@%_307_0)
                             ((_ zero_extend 32) main@%_306_0))
                      #x0000000000000002)))
      (a!83 (= ((_ extract 0 0)
                 (bvor (bvand main@%_354_0 main@%_352_0) main@%_350_0))
               #b1))
      (a!86 (= ((_ extract 0 0)
                 (bvor main@%_402_0 (bvand main@%_396_0 main@%_394_0)))
               #b1))
      (a!88 (ite (= ((_ extract 0 0) main@%_354_0) #b1)
                 (= ((_ extract 0 0) main@%_352_0) #b1)
                 false))
      (a!89 ((_ extract 59 0)
              (bvlshr (bvmul ((_ zero_extend 32) main@%_349_0)
                             ((_ zero_extend 32) main@%_348_0))
                      #x0000000000000002)))
      (a!92 (= ((_ extract 0 0)
                 (bvor (bvand main@%_396_0 main@%_394_0) main@%_392_0))
               #b1))
      (a!94 (= ((_ extract 0 0)
                 (bvor main@%_444_0 (bvand main@%_438_0 main@%_436_0)))
               #b1))
      (a!97 (ite (= ((_ extract 0 0) main@%_396_0) #b1)
                 (= ((_ extract 0 0) main@%_394_0) #b1)
                 false))
      (a!98 ((_ extract 59 0)
              (bvlshr (bvmul ((_ zero_extend 32) main@%_391_0)
                             ((_ zero_extend 32) main@%_390_0))
                      #x0000000000000002)))
      (a!101 (= ((_ extract 0 0)
                  (bvor (bvand main@%_438_0 main@%_436_0) main@%_434_0))
                #b1))
      (a!105 (= ((_ extract 0 0)
                  (bvor main@%_486_0 (bvand main@%_480_0 main@%_478_0)))
                #b1))
      (a!107 (ite (= ((_ extract 0 0) main@%_438_0) #b1)
                  (= ((_ extract 0 0) main@%_436_0) #b1)
                  false))
      (a!108 ((_ extract 59 0)
               (bvlshr (bvmul ((_ zero_extend 32) main@%_433_0)
                              ((_ zero_extend 32) main@%_432_0))
                       #x0000000000000002)))
      (a!110 (= ((_ extract 0 0)
                  (bvor (bvand main@%_480_0 main@%_478_0) main@%_476_0))
                #b1))
      (a!113 (= ((_ extract 0 0)
                  (bvor main@%_528_0 (bvand main@%_522_0 main@%_520_0)))
                #b1))
      (a!115 (ite (= ((_ extract 0 0) main@%_480_0) #b1)
                  (= ((_ extract 0 0) main@%_478_0) #b1)
                  false))
      (a!116 ((_ extract 59 0)
               (bvlshr (bvmul ((_ zero_extend 32) main@%_475_0)
                              ((_ zero_extend 32) main@%_474_0))
                       #x0000000000000002)))
      (a!119 (= ((_ extract 0 0)
                  (bvor (bvand main@%_522_0 main@%_520_0) main@%_518_0))
                #b1))
      (a!121 (= ((_ extract 0 0)
                  (bvor main@%_570_0 (bvand main@%_564_0 main@%_562_0)))
                #b1))
      (a!124 (ite (= ((_ extract 0 0) main@%_522_0) #b1)
                  (= ((_ extract 0 0) main@%_520_0) #b1)
                  false))
      (a!125 ((_ extract 59 0)
               (bvlshr (bvmul ((_ zero_extend 32) main@%_517_0)
                              ((_ zero_extend 32) main@%_516_0))
                       #x0000000000000002)))
      (a!128 (= ((_ extract 0 0)
                  (bvor (bvand main@%_564_0 main@%_562_0) main@%_560_0))
                #b1))
      (a!132 (= ((_ extract 0 0)
                  (bvor main@%_612_0 (bvand main@%_606_0 main@%_604_0)))
                #b1))
      (a!134 (ite (= ((_ extract 0 0) main@%_564_0) #b1)
                  (= ((_ extract 0 0) main@%_562_0) #b1)
                  false))
      (a!135 ((_ extract 59 0)
               (bvlshr (bvmul ((_ zero_extend 32) main@%_559_0)
                              ((_ zero_extend 32) main@%_558_0))
                       #x0000000000000002)))
      (a!137 (= ((_ extract 0 0)
                  (bvor (bvand main@%_606_0 main@%_604_0) main@%_602_0))
                #b1))
      (a!140 (= ((_ extract 0 0)
                  (bvor main@%_654_0 (bvand main@%_648_0 main@%_646_0)))
                #b1))
      (a!142 (ite (= ((_ extract 0 0) main@%_606_0) #b1)
                  (= ((_ extract 0 0) main@%_604_0) #b1)
                  false))
      (a!143 ((_ extract 59 0)
               (bvlshr (bvmul ((_ zero_extend 32) main@%_601_0)
                              ((_ zero_extend 32) main@%_600_0))
                       #x0000000000000002)))
      (a!146 (= ((_ extract 0 0)
                  (bvor (bvand main@%_648_0 main@%_646_0) main@%_644_0))
                #b1))
      (a!148 (= ((_ extract 0 0)
                  (bvor main@%_696_0 (bvand main@%_690_0 main@%_688_0)))
                #b1))
      (a!151 (ite (= ((_ extract 0 0) main@%_648_0) #b1)
                  (= ((_ extract 0 0) main@%_646_0) #b1)
                  false))
      (a!152 ((_ extract 59 0)
               (bvlshr (bvmul ((_ zero_extend 32) main@%_643_0)
                              ((_ zero_extend 32) main@%_642_0))
                       #x0000000000000002)))
      (a!155 (= ((_ extract 0 0)
                  (bvor (bvand main@%_690_0 main@%_688_0) main@%_686_0))
                #b1))
      (a!159 (= ((_ extract 0 0)
                  (bvor main@%_733_0 (bvand main@%_731_0 main@%_730_0)))
                #b1))
      (a!161 (ite (= ((_ extract 0 0) main@%_690_0) #b1)
                  (= ((_ extract 0 0) main@%_688_0) #b1)
                  false))
      (a!162 ((_ extract 59 0)
               (bvlshr (bvmul ((_ zero_extend 32) main@%_685_0)
                              ((_ zero_extend 32) main@%_684_0))
                       #x0000000000000002)))
      (a!164 (= ((_ extract 0 0)
                  (bvor (bvand main@%_731_0 main@%_730_0) main@%_728_0))
                #b1)))
(let ((a!2 (= (ite (= ((_ extract 0 0) main@%_2_0) #b1) main@%_1_0 #x00000000)
              (ite (= ((_ extract 0 0) main@%_2_0) #b1)
                   (ite a!1 main@%_1_0 #x00000000)
                   #x00000000)))
      (a!4 (= (ite (= ((_ extract 0 0) main@%_10_0) #b1) main@%_0_0 #x00000000)
              (ite (= ((_ extract 0 0) main@%_10_0) #b1)
                   (ite a!3 main@%_0_0 #x00000000)
                   #x00000000)))
      (a!6 (= (ite (= ((_ extract 0 0) main@%_27_0) #b1) main@%_15_0 #x00000000)
              (ite (= ((_ extract 0 0) main@%_27_0) #b1)
                   (ite a!5 main@%_15_0 (ite a!3 main@%_0_0 #x00000000))
                   #x00000000)))
      (a!9 (bvlshr (bvmul ((_ zero_extend 32) (ite a!3 main@%_0_0 #x00000000))
                          ((_ zero_extend 32) (ite a!1 main@%_1_0 #x00000000)))
                   #x0000000000000002))
      (a!12 (= (ite (= ((_ extract 0 0) main@%_17_0) #b1)
                    main@%_16_0
                    #x00000000)
               (ite (= ((_ extract 0 0) main@%_17_0) #b1)
                    (ite a!11 main@%_16_0 (ite a!1 main@%_1_0 #x00000000))
                    #x00000000)))
      (a!14 (ite a!13
                 main@%_54_0
                 (ite a!5 main@%_15_0 (ite a!3 main@%_0_0 #x00000000))))
      (a!18 (bvmul ((_ zero_extend 32)
                     (ite a!5 main@%_15_0 (ite a!3 main@%_0_0 #x00000000)))
                   ((_ zero_extend 32)
                     (ite a!11 main@%_16_0 (ite a!1 main@%_1_0 #x00000000)))))
      (a!21 (ite a!20
                 main@%_55_0
                 (ite a!11 main@%_16_0 (ite a!1 main@%_1_0 #x00000000)))))
(let ((a!10 (= (ite a!7 ((_ zero_extend 4) a!8) #x0000000000000000)
               (ite a!7
                    ((_ zero_extend 4) ((_ extract 59 0) a!9))
                    #x0000000000000000)))
      (a!15 (= (ite (= ((_ extract 0 0) main@%_66_0) #b1)
                    main@%_54_0
                    #x00000000)
               (ite (= ((_ extract 0 0) main@%_66_0) #b1) a!14 #x00000000)))
      (a!19 (ite a!16
                 ((_ zero_extend 4)
                   ((_ extract 59 0) (bvlshr a!18 #x0000000000000002)))
                 #x0000000000000000))
      (a!22 (= (ite (= ((_ extract 0 0) main@%_56_0) #b1)
                    main@%_55_0
                    #x00000000)
               (ite (= ((_ extract 0 0) main@%_56_0) #b1) a!21 #x00000000)))
      (a!25 (= (ite (= ((_ extract 0 0) main@%_108_0) #b1)
                    main@%_96_0
                    #x00000000)
               (ite (= ((_ extract 0 0) main@%_108_0) #b1)
                    (ite a!24 main@%_96_0 a!14)
                    #x00000000)))
      (a!28 ((_ extract 59 0)
              (bvlshr (bvmul ((_ zero_extend 32) a!14)
                             ((_ zero_extend 32) a!21))
                      #x0000000000000002)))
      (a!30 (= (ite (= ((_ extract 0 0) main@%_98_0) #b1)
                    main@%_97_0
                    #x00000000)
               (ite (= ((_ extract 0 0) main@%_98_0) #b1)
                    (ite a!29 main@%_97_0 a!21)
                    #x00000000)))
      (a!33 (= (ite (= ((_ extract 0 0) main@%_150_0) #b1)
                    main@%_138_0
                    #x00000000)
               (ite (= ((_ extract 0 0) main@%_150_0) #b1)
                    (ite a!32 main@%_138_0 (ite a!24 main@%_96_0 a!14))
                    #x00000000)))
      (a!36 (bvlshr (bvmul ((_ zero_extend 32) (ite a!24 main@%_96_0 a!14))
                           ((_ zero_extend 32) (ite a!29 main@%_97_0 a!21)))
                    #x0000000000000002))
      (a!39 (= (ite (= ((_ extract 0 0) main@%_140_0) #b1)
                    main@%_139_0
                    #x00000000)
               (ite (= ((_ extract 0 0) main@%_140_0) #b1)
                    (ite a!38 main@%_139_0 (ite a!29 main@%_97_0 a!21))
                    #x00000000)))
      (a!41 (ite a!40
                 main@%_180_0
                 (ite a!32 main@%_138_0 (ite a!24 main@%_96_0 a!14))))
      (a!45 (bvmul ((_ zero_extend 32)
                     (ite a!32 main@%_138_0 (ite a!24 main@%_96_0 a!14)))
                   ((_ zero_extend 32)
                     (ite a!38 main@%_139_0 (ite a!29 main@%_97_0 a!21)))))
      (a!48 (ite a!47
                 main@%_181_0
                 (ite a!38 main@%_139_0 (ite a!29 main@%_97_0 a!21)))))
(let ((a!23 (and a!15
                 (= (ite a!16 ((_ zero_extend 4) a!17) #x0000000000000000) a!19)
                 a!22))
      (a!31 (and a!25
                 (= (ite a!26 ((_ zero_extend 4) a!27) #x0000000000000000)
                    (ite a!26 ((_ zero_extend 4) a!28) #x0000000000000000))
                 a!30))
      (a!37 (= (ite a!34 ((_ zero_extend 4) a!35) #x0000000000000000)
               (ite a!34
                    ((_ zero_extend 4) ((_ extract 59 0) a!36))
                    #x0000000000000000)))
      (a!42 (= (ite (= ((_ extract 0 0) main@%_192_0) #b1)
                    main@%_180_0
                    #x00000000)
               (ite (= ((_ extract 0 0) main@%_192_0) #b1) a!41 #x00000000)))
      (a!46 (ite a!43
                 ((_ zero_extend 4)
                   ((_ extract 59 0) (bvlshr a!45 #x0000000000000002)))
                 #x0000000000000000))
      (a!49 (= (ite (= ((_ extract 0 0) main@%_182_0) #b1)
                    main@%_181_0
                    #x00000000)
               (ite (= ((_ extract 0 0) main@%_182_0) #b1) a!48 #x00000000)))
      (a!52 (= (ite (= ((_ extract 0 0) main@%_234_0) #b1)
                    main@%_222_0
                    #x00000000)
               (ite (= ((_ extract 0 0) main@%_234_0) #b1)
                    (ite a!51 main@%_222_0 a!41)
                    #x00000000)))
      (a!55 ((_ extract 59 0)
              (bvlshr (bvmul ((_ zero_extend 32) a!41)
                             ((_ zero_extend 32) a!48))
                      #x0000000000000002)))
      (a!57 (= (ite (= ((_ extract 0 0) main@%_224_0) #b1)
                    main@%_223_0
                    #x00000000)
               (ite (= ((_ extract 0 0) main@%_224_0) #b1)
                    (ite a!56 main@%_223_0 a!48)
                    #x00000000)))
      (a!60 (= (ite (= ((_ extract 0 0) main@%_276_0) #b1)
                    main@%_264_0
                    #x00000000)
               (ite (= ((_ extract 0 0) main@%_276_0) #b1)
                    (ite a!59 main@%_264_0 (ite a!51 main@%_222_0 a!41))
                    #x00000000)))
      (a!63 (bvlshr (bvmul ((_ zero_extend 32) (ite a!51 main@%_222_0 a!41))
                           ((_ zero_extend 32) (ite a!56 main@%_223_0 a!48)))
                    #x0000000000000002))
      (a!66 (= (ite (= ((_ extract 0 0) main@%_266_0) #b1)
                    main@%_265_0
                    #x00000000)
               (ite (= ((_ extract 0 0) main@%_266_0) #b1)
                    (ite a!65 main@%_265_0 (ite a!56 main@%_223_0 a!48))
                    #x00000000)))
      (a!68 (ite a!67
                 main@%_306_0
                 (ite a!59 main@%_264_0 (ite a!51 main@%_222_0 a!41))))
      (a!72 (bvmul ((_ zero_extend 32)
                     (ite a!59 main@%_264_0 (ite a!51 main@%_222_0 a!41)))
                   ((_ zero_extend 32)
                     (ite a!65 main@%_265_0 (ite a!56 main@%_223_0 a!48)))))
      (a!75 (ite a!74
                 main@%_307_0
                 (ite a!65 main@%_265_0 (ite a!56 main@%_223_0 a!48)))))
(let ((a!50 (and a!42
                 (= (ite a!43 ((_ zero_extend 4) a!44) #x0000000000000000) a!46)
                 a!49))
      (a!58 (and a!52
                 (= (ite a!53 ((_ zero_extend 4) a!54) #x0000000000000000)
                    (ite a!53 ((_ zero_extend 4) a!55) #x0000000000000000))
                 a!57))
      (a!64 (= (ite a!61 ((_ zero_extend 4) a!62) #x0000000000000000)
               (ite a!61
                    ((_ zero_extend 4) ((_ extract 59 0) a!63))
                    #x0000000000000000)))
      (a!69 (= (ite (= ((_ extract 0 0) main@%_318_0) #b1)
                    main@%_306_0
                    #x00000000)
               (ite (= ((_ extract 0 0) main@%_318_0) #b1) a!68 #x00000000)))
      (a!73 (ite a!70
                 ((_ zero_extend 4)
                   ((_ extract 59 0) (bvlshr a!72 #x0000000000000002)))
                 #x0000000000000000))
      (a!76 (= (ite (= ((_ extract 0 0) main@%_308_0) #b1)
                    main@%_307_0
                    #x00000000)
               (ite (= ((_ extract 0 0) main@%_308_0) #b1) a!75 #x00000000)))
      (a!79 (= (ite (= ((_ extract 0 0) main@%_360_0) #b1)
                    main@%_348_0
                    #x00000000)
               (ite (= ((_ extract 0 0) main@%_360_0) #b1)
                    (ite a!78 main@%_348_0 a!68)
                    #x00000000)))
      (a!82 ((_ extract 59 0)
              (bvlshr (bvmul ((_ zero_extend 32) a!68)
                             ((_ zero_extend 32) a!75))
                      #x0000000000000002)))
      (a!84 (= (ite (= ((_ extract 0 0) main@%_350_0) #b1)
                    main@%_349_0
                    #x00000000)
               (ite (= ((_ extract 0 0) main@%_350_0) #b1)
                    (ite a!83 main@%_349_0 a!75)
                    #x00000000)))
      (a!87 (= (ite (= ((_ extract 0 0) main@%_402_0) #b1)
                    main@%_390_0
                    #x00000000)
               (ite (= ((_ extract 0 0) main@%_402_0) #b1)
                    (ite a!86 main@%_390_0 (ite a!78 main@%_348_0 a!68))
                    #x00000000)))
      (a!90 (bvlshr (bvmul ((_ zero_extend 32) (ite a!78 main@%_348_0 a!68))
                           ((_ zero_extend 32) (ite a!83 main@%_349_0 a!75)))
                    #x0000000000000002))
      (a!93 (= (ite (= ((_ extract 0 0) main@%_392_0) #b1)
                    main@%_391_0
                    #x00000000)
               (ite (= ((_ extract 0 0) main@%_392_0) #b1)
                    (ite a!92 main@%_391_0 (ite a!83 main@%_349_0 a!75))
                    #x00000000)))
      (a!95 (ite a!94
                 main@%_432_0
                 (ite a!86 main@%_390_0 (ite a!78 main@%_348_0 a!68))))
      (a!99 (bvmul ((_ zero_extend 32)
                     (ite a!86 main@%_390_0 (ite a!78 main@%_348_0 a!68)))
                   ((_ zero_extend 32)
                     (ite a!92 main@%_391_0 (ite a!83 main@%_349_0 a!75)))))
      (a!102 (ite a!101
                  main@%_433_0
                  (ite a!92 main@%_391_0 (ite a!83 main@%_349_0 a!75)))))
(let ((a!77 (and a!69
                 (= (ite a!70 ((_ zero_extend 4) a!71) #x0000000000000000) a!73)
                 a!76))
      (a!85 (and a!79
                 (= (ite a!80 ((_ zero_extend 4) a!81) #x0000000000000000)
                    (ite a!80 ((_ zero_extend 4) a!82) #x0000000000000000))
                 a!84))
      (a!91 (= (ite a!88 ((_ zero_extend 4) a!89) #x0000000000000000)
               (ite a!88
                    ((_ zero_extend 4) ((_ extract 59 0) a!90))
                    #x0000000000000000)))
      (a!96 (= (ite (= ((_ extract 0 0) main@%_444_0) #b1)
                    main@%_432_0
                    #x00000000)
               (ite (= ((_ extract 0 0) main@%_444_0) #b1) a!95 #x00000000)))
      (a!100 (ite a!97
                  ((_ zero_extend 4)
                    ((_ extract 59 0) (bvlshr a!99 #x0000000000000002)))
                  #x0000000000000000))
      (a!103 (= (ite (= ((_ extract 0 0) main@%_434_0) #b1)
                     main@%_433_0
                     #x00000000)
                (ite (= ((_ extract 0 0) main@%_434_0) #b1) a!102 #x00000000)))
      (a!106 (= (ite (= ((_ extract 0 0) main@%_486_0) #b1)
                     main@%_474_0
                     #x00000000)
                (ite (= ((_ extract 0 0) main@%_486_0) #b1)
                     (ite a!105 main@%_474_0 a!95)
                     #x00000000)))
      (a!109 ((_ extract 59 0)
               (bvlshr (bvmul ((_ zero_extend 32) a!95)
                              ((_ zero_extend 32) a!102))
                       #x0000000000000002)))
      (a!111 (= (ite (= ((_ extract 0 0) main@%_476_0) #b1)
                     main@%_475_0
                     #x00000000)
                (ite (= ((_ extract 0 0) main@%_476_0) #b1)
                     (ite a!110 main@%_475_0 a!102)
                     #x00000000)))
      (a!114 (= (ite (= ((_ extract 0 0) main@%_528_0) #b1)
                     main@%_516_0
                     #x00000000)
                (ite (= ((_ extract 0 0) main@%_528_0) #b1)
                     (ite a!113 main@%_516_0 (ite a!105 main@%_474_0 a!95))
                     #x00000000)))
      (a!117 (bvlshr (bvmul ((_ zero_extend 32) (ite a!105 main@%_474_0 a!95))
                            ((_ zero_extend 32) (ite a!110 main@%_475_0 a!102)))
                     #x0000000000000002))
      (a!120 (= (ite (= ((_ extract 0 0) main@%_518_0) #b1)
                     main@%_517_0
                     #x00000000)
                (ite (= ((_ extract 0 0) main@%_518_0) #b1)
                     (ite a!119 main@%_517_0 (ite a!110 main@%_475_0 a!102))
                     #x00000000)))
      (a!122 (ite a!121
                  main@%_558_0
                  (ite a!113 main@%_516_0 (ite a!105 main@%_474_0 a!95))))
      (a!126 (bvmul ((_ zero_extend 32)
                      (ite a!113 main@%_516_0 (ite a!105 main@%_474_0 a!95)))
                    ((_ zero_extend 32)
                      (ite a!119 main@%_517_0 (ite a!110 main@%_475_0 a!102)))))
      (a!129 (ite a!128
                  main@%_559_0
                  (ite a!119 main@%_517_0 (ite a!110 main@%_475_0 a!102)))))
(let ((a!104 (and a!96
                  (= (ite a!97 ((_ zero_extend 4) a!98) #x0000000000000000)
                     a!100)
                  a!103))
      (a!112 (and a!106
                  (= (ite a!107 ((_ zero_extend 4) a!108) #x0000000000000000)
                     (ite a!107 ((_ zero_extend 4) a!109) #x0000000000000000))
                  a!111))
      (a!118 (= (ite a!115 ((_ zero_extend 4) a!116) #x0000000000000000)
                (ite a!115
                     ((_ zero_extend 4) ((_ extract 59 0) a!117))
                     #x0000000000000000)))
      (a!123 (= (ite (= ((_ extract 0 0) main@%_570_0) #b1)
                     main@%_558_0
                     #x00000000)
                (ite (= ((_ extract 0 0) main@%_570_0) #b1) a!122 #x00000000)))
      (a!127 (ite a!124
                  ((_ zero_extend 4)
                    ((_ extract 59 0) (bvlshr a!126 #x0000000000000002)))
                  #x0000000000000000))
      (a!130 (= (ite (= ((_ extract 0 0) main@%_560_0) #b1)
                     main@%_559_0
                     #x00000000)
                (ite (= ((_ extract 0 0) main@%_560_0) #b1) a!129 #x00000000)))
      (a!133 (= (ite (= ((_ extract 0 0) main@%_612_0) #b1)
                     main@%_600_0
                     #x00000000)
                (ite (= ((_ extract 0 0) main@%_612_0) #b1)
                     (ite a!132 main@%_600_0 a!122)
                     #x00000000)))
      (a!136 ((_ extract 59 0)
               (bvlshr (bvmul ((_ zero_extend 32) a!122)
                              ((_ zero_extend 32) a!129))
                       #x0000000000000002)))
      (a!138 (= (ite (= ((_ extract 0 0) main@%_602_0) #b1)
                     main@%_601_0
                     #x00000000)
                (ite (= ((_ extract 0 0) main@%_602_0) #b1)
                     (ite a!137 main@%_601_0 a!129)
                     #x00000000)))
      (a!141 (= (ite (= ((_ extract 0 0) main@%_654_0) #b1)
                     main@%_642_0
                     #x00000000)
                (ite (= ((_ extract 0 0) main@%_654_0) #b1)
                     (ite a!140 main@%_642_0 (ite a!132 main@%_600_0 a!122))
                     #x00000000)))
      (a!144 (bvlshr (bvmul ((_ zero_extend 32) (ite a!132 main@%_600_0 a!122))
                            ((_ zero_extend 32) (ite a!137 main@%_601_0 a!129)))
                     #x0000000000000002))
      (a!147 (= (ite (= ((_ extract 0 0) main@%_644_0) #b1)
                     main@%_643_0
                     #x00000000)
                (ite (= ((_ extract 0 0) main@%_644_0) #b1)
                     (ite a!146 main@%_643_0 (ite a!137 main@%_601_0 a!129))
                     #x00000000)))
      (a!149 (ite a!148
                  main@%_684_0
                  (ite a!140 main@%_642_0 (ite a!132 main@%_600_0 a!122))))
      (a!153 (bvmul ((_ zero_extend 32)
                      (ite a!140 main@%_642_0 (ite a!132 main@%_600_0 a!122)))
                    ((_ zero_extend 32)
                      (ite a!146 main@%_643_0 (ite a!137 main@%_601_0 a!129)))))
      (a!156 (ite a!155
                  main@%_685_0
                  (ite a!146 main@%_643_0 (ite a!137 main@%_601_0 a!129)))))
(let ((a!131 (and a!123
                  (= (ite a!124 ((_ zero_extend 4) a!125) #x0000000000000000)
                     a!127)
                  a!130))
      (a!139 (and a!133
                  (= (ite a!134 ((_ zero_extend 4) a!135) #x0000000000000000)
                     (ite a!134 ((_ zero_extend 4) a!136) #x0000000000000000))
                  a!138))
      (a!145 (= (ite a!142 ((_ zero_extend 4) a!143) #x0000000000000000)
                (ite a!142
                     ((_ zero_extend 4) ((_ extract 59 0) a!144))
                     #x0000000000000000)))
      (a!150 (= (ite (= ((_ extract 0 0) main@%_696_0) #b1)
                     main@%_684_0
                     #x00000000)
                (ite (= ((_ extract 0 0) main@%_696_0) #b1) a!149 #x00000000)))
      (a!154 (ite a!151
                  ((_ zero_extend 4)
                    ((_ extract 59 0) (bvlshr a!153 #x0000000000000002)))
                  #x0000000000000000))
      (a!157 (= (ite (= ((_ extract 0 0) main@%_686_0) #b1)
                     main@%_685_0
                     #x00000000)
                (ite (= ((_ extract 0 0) main@%_686_0) #b1) a!156 #x00000000)))
      (a!160 (= (ite (= ((_ extract 0 0) main@%_733_0) #b1)
                     main@%_726_0
                     #x00000000)
                (ite (= ((_ extract 0 0) main@%_733_0) #b1)
                     (ite a!159 main@%_726_0 a!149)
                     #x00000000)))
      (a!163 ((_ extract 59 0)
               (bvlshr (bvmul ((_ zero_extend 32) a!149)
                              ((_ zero_extend 32) a!156))
                       #x0000000000000002)))
      (a!165 (= (ite (= ((_ extract 0 0) main@%_728_0) #b1)
                     main@%_727_0
                     #x00000000)
                (ite (= ((_ extract 0 0) main@%_728_0) #b1)
                     (ite a!164 main@%_727_0 a!156)
                     #x00000000))))
(let ((a!158 (and a!150
                  (= (ite a!151 ((_ zero_extend 4) a!152) #x0000000000000000)
                     a!154)
                  a!157))
      (a!166 (and a!160
                  (= (ite a!161 ((_ zero_extend 4) a!162) #x0000000000000000)
                     (ite a!161 ((_ zero_extend 4) a!163) #x0000000000000000))
                  a!165)))
(let ((a!167 (ite (and a!141 a!145 a!147)
                  (ite a!158 (and true (xor a!166 true)) true)
                  true)))
(let ((a!168 (ite a!112
                  (ite (and a!114 a!118 a!120)
                       (ite a!131 (ite a!139 a!167 true) true)
                       true)
                  true)))
(let ((a!169 (ite a!77
                  (ite a!85
                       (ite (and a!87 a!91 a!93) (ite a!104 a!168 true) true)
                       true)
                  true)))
(let ((a!170 (ite a!50
                  (ite a!58 (ite (and a!60 a!64 a!66) a!169 true) true)
                  true)))
(let ((a!171 (ite a!23
                  (ite a!31 (ite (and a!33 a!37 a!39) a!170 true) true)
                  true)))
  (and (= #b000 ((_ extract 2 0) sea.sp0_0))
       (bvule sea.sp0_0 #x00000000c0000000)
       (bvuge sea.sp0_0 #x00000000bf700000)
       (ite (and a!2 a!4) (ite (and a!6 a!10 a!12) a!171 true) true)))))))))))))))))
(check-sat)
